\ENCODING=ISO-8859-1
\Problem name: 

Minimize
 Minimize_Cost#0: 35 x11 + 30 x12 + 40 x13 + 32 x14 + 37 x21 + 40 x22 + 42 x23
                  + 25 x24 + 40 x31 + 15 x32 + 20 x33 + 28 x34
Subject To
 c1: <= 1200
 c2:  = 1000
 c3:  = 800
 c4:  = 1100
 c5:  = 400
 c6:  = 750
 c7:  = 750
End
